c WARNING: for repeatability, setting FPU to use double precision
d VARIABLES            21598        
d CONSTRAINTS          85514        
c ============================[ Problem Statistics ]=============================
c |                                                                             |
c |  Number of variables:         21598                                         |
c |  Number of clauses:           85514                                         |
c |  Parse time:                   0.01 s                                       |
c |                                                                             |
c ============================[ Search Statistics ]==============================
c | Conflicts |          ORIGINAL         |          LEARNT          | Progress |
c |           |    Vars  Clauses Literals |    Limit  Clauses Lit/Cl |          |
c ===============================================================================
c |       100 |   15506    68230   167414 |    25017      100     76 | 28.206 % |
c |       250 |   15506    68230   167414 |    27519      250    106 | 28.206 % |
c |       475 |   15506    68230   167414 |    30271      475    105 | 28.206 % |
c |       812 |   15506    68230   167414 |    33298      812    122 | 28.206 % |
c |      1318 |   15506    68230   167414 |    36628     1318    111 | 28.206 % |
c ===============================================================================
c restarts              : 11
c conflicts             : 1697           (8658 /sec)
c decisions             : 6911           (0.00 % random) (35258 /sec)
c propagations          : 1363610        (6956768 /sec)
c conflict literals     : 193942         (7.25 % deleted)
d RESTARTS             11
d FAILURES             1697         
d NODES                6911         
d BACKTRACKS           6911         
d PROPAGATIONS         1363610      
d NOGOODSIZE           114.29 
d MEMORY               11.00 
d TIME                 0.196012 

s SATISFIABLE
